Optimizer called with the following parameters:
{'focal_plane_mask': {'field_stop_radius': None,
                      'grayscale': True,
                      'num_pix': 150,
                      'radius': 3.7},
 'image': {'bandwidth': 0.1,
           'contrast': 10,
           'iwa': 3.6,
           'num_wavelengths': 5,
           'owa': 14.0,
           'resolution': 2},
 'instrument': {'inst_name': 'USORT'},
 'lyot_stop': {'alignment_tolerance': 0,
               'filename': 'USORT/LS_USORT_hex_ID0000_OD0990_ovsamp16_N0128.fits',
               'num_lyot_stops': 1},
 'method': {'edge_width_for_prior': 2,
            'ending_scale': 1,
            'force_no_hermitian_symmetry': False,
            'force_no_x_mirror_symmetry': False,
            'force_no_y_mirror_symmetry': False,
            'initial_throughput_estimate': 1,
            'maximize_planet_throughput': True,
            'num_throughput_iterations': 2,
            'starting_scale': 1},
 'pupil': {'N': 128,
           'filename': 'USORT/TelAp_USORT_offaxis_ovsamp16_N0128.fits'},
 'solver': {'crossover': 0,
            'method': 2,
            'num_threads': 0}}

File organization:
{'analysis_dir': '/user/bnickson/GitHub/LUVex_TelAps/aplc_optimization/surveys/usort_offaxis_survey_N0128_telserv3/FPM37_IWA36/analysis',
 'drivers_dir': '/user/bnickson/GitHub/LUVex_TelAps/aplc_optimization/surveys/usort_offaxis_survey_N0128_telserv3/FPM37_IWA36/drivers',
 'input_files_dir': '/user/bnickson/GitHub/LUVex_TelAps/aplc_optimization/masks',
 'log_dir': '/user/bnickson/GitHub/LUVex_TelAps/aplc_optimization/surveys/usort_offaxis_survey_N0128_telserv3/FPM37_IWA36/logs',
 'solution_dir': '/user/bnickson/GitHub/LUVex_TelAps/aplc_optimization/surveys/usort_offaxis_survey_N0128_telserv3/FPM37_IWA36/solutions',
 'survey_dir': '/user/bnickson/GitHub/LUVex_TelAps/aplc_optimization/surveys/usort_offaxis_survey_N0128_telserv3/FPM37_IWA36'}

Telescope pupil:
   Mirror symmetry in x: yes
   Mirror symmetry in y: yes

Lyot stop #0:
   Mirror symmetry in x: yes
Lyot stop #0:
   Mirror symmetry in y: yes

Complete APLC:
   Mirror symmetry in x: yes
   Mirror symmetry in y: yes

Starting optimization at scale 1 with 2726 variables and 2885 constraints.
Creating model...
Set parameter Username
Academic license - for non-commercial use only - expires 2024-10-25
Set parameter Crossover to value 0
Set parameter Method to value 2
Calculating and adding constraints...
Wavelength 1/5; Variable 1000/2726
Wavelength 1/5; Variable 2000/2726
Wavelength 2/5; Variable 1000/2726
Wavelength 2/5; Variable 2000/2726
Wavelength 3/5; Variable 1000/2726
Wavelength 3/5; Variable 2000/2726
Wavelength 4/5; Variable 1000/2726
Wavelength 4/5; Variable 2000/2726
Wavelength 5/5; Variable 1000/2726
Wavelength 5/5; Variable 2000/2726
Start optimization...
Gurobi Optimizer version 10.0.3 build v10.0.3rc0 (linux64)

CPU model: Intel(R) Xeon(R) Gold 6146 CPU @ 3.20GHz, instruction set [SSE2|AVX|AVX2|AVX512]
Thread count: 24 physical cores, 48 logical processors, using up to 24 threads

Optimize a model with 5770 rows, 2726 columns and 15729020 nonzeros
Model fingerprint: 0x3250f522
Coefficient statistics:
  Matrix range     [6e-13, 6e-04]
  Objective range  [4e-03, 1e+00]
  Bounds range     [1e+00, 1e+00]
  RHS range        [1e-05, 1e-05]
Presolve removed 0 rows and 0 columns (presolve time = 6s) ...
Presolve time: 7.26s
Presolved: 2726 rows, 8496 columns, 15731746 nonzeros
Error: invalid user locale; possible fix is to set the system environment
       variable 'LC_ALL' to a valid locale (e.g., to 'C')
Ordering time: 0.07s

Barrier statistics:
 AA' NZ     : 3.714e+06
 Factor NZ  : 3.717e+06 (roughly 34 MB of memory)
 Factor Ops : 6.756e+09 (less than 1 second per iteration)
 Threads    : 24

                  Objective                Residual
Iter       Primal          Dual         Primal    Dual     Compl     Time
   0   5.53655801e+03  0.00000000e+00  0.00e+00 0.00e+00  9.58e-01    11s
   1   2.89083584e+03  6.14438619e+02  0.00e+00 1.89e-01  3.69e-01    12s
   2   2.07818272e+03  1.44103635e+03  0.00e+00 3.54e-02  9.00e-02    13s
   3   1.76295730e+03  1.49098911e+03  0.00e+00 1.63e-02  3.40e-02    14s
   4   1.64587149e+03  1.51222359e+03  0.00e+00 7.08e-03  1.48e-02    14s
   5   1.60036709e+03  1.51691886e+03  0.00e+00 5.24e-03  9.06e-03    15s
   6   1.57219814e+03  1.52315714e+03  0.00e+00 3.12e-03  5.11e-03    16s
   7   1.54973827e+03  1.52786704e+03  0.00e+00 1.44e-03  2.21e-03    17s
   8   1.54244253e+03  1.53063567e+03  0.00e+00 6.68e-04  1.16e-03    17s
   9   1.53919972e+03  1.53157417e+03  0.00e+00 4.42e-04  7.47e-04    18s
  10   1.53707327e+03  1.53249310e+03  0.00e+00 2.41e-04  4.43e-04    19s
  11   1.53620894e+03  1.53289581e+03  0.00e+00 1.65e-04  3.19e-04    20s
  12   1.53480641e+03  1.53330241e+03  0.00e+00 7.96e-05  1.45e-04    21s
  13   1.53423736e+03  1.53352966e+03  0.00e+00 3.69e-05  6.81e-05    21s
  14   1.53396856e+03  1.53363897e+03  0.00e+00 1.82e-05  3.18e-05    22s
  15   1.53384741e+03  1.53370714e+03  0.00e+00 6.35e-06  1.34e-05    23s
  16   1.53379589e+03  1.53372895e+03  0.00e+00 2.80e-06  6.34e-06    24s
  17   1.53377456e+03  1.53374083e+03  0.00e+00 9.67e-07  3.14e-06    24s
  18   1.53375491e+03  1.53374686e+03  0.00e+00 1.47e-07  7.37e-07    25s
  19   1.53374897e+03  1.53374794e+03  4.21e-08 9.81e-09  9.26e-08    26s
  20   1.53374896e+03  1.53374806e+03  6.10e-08 1.10e-09  8.03e-08    27s
  21   1.53374896e+03  1.53374806e+03  9.42e-08 8.40e-10  7.98e-08    28s
  22   1.53374895e+03  1.53374807e+03  2.02e-07 2.79e-10  7.81e-08    29s
  23   1.53374893e+03  1.53374807e+03  3.23e-07 1.68e-11  7.67e-08    31s
  24   1.53374889e+03  1.53374807e+03  6.19e-07 5.05e-13  7.34e-08    32s
  25   1.53374889e+03  1.53374807e+03  6.28e-07 4.67e-13  7.32e-08    33s
  26   1.53374887e+03  1.53374807e+03  9.57e-07 5.73e-13  7.15e-08    34s
  27   1.53374885e+03  1.53374807e+03  9.91e-07 6.85e-13  6.98e-08    35s
  28   1.53374884e+03  1.53374808e+03  8.96e-07 4.81e-13  6.84e-08    36s
  29   1.53374856e+03  1.53374808e+03  1.25e-06 5.62e-13  4.37e-08    37s
  30   1.53374832e+03  1.53374807e+03  1.09e-06 6.47e-13  2.17e-08    40s
  31   1.53374813e+03  1.53374808e+03  1.45e-06 4.73e-13  3.63e-09    41s
  32   1.53374808e+03  1.53374808e+03  1.39e-06 5.78e-13  4.73e-10    42s
  33   1.53374808e+03  1.53374808e+03  1.36e-06 4.98e-13  4.00e-10    43s
  34   1.53374808e+03  1.53374808e+03  1.97e-06 6.60e-13  3.23e-10    44s
  35   1.53374807e+03  1.53374808e+03  2.28e-06 5.32e-13  2.92e-10    45s
  36   1.53374804e+03  1.53374808e+03  2.82e-06 7.90e-13  2.16e-10    46s
  37   1.53374807e+03  1.53374808e+03  1.62e-06 3.86e-13  2.17e-13    47s
  38   1.53374809e+03  1.53374808e+03  2.39e-06 3.74e-13  2.21e-16    48s
  39   1.53374810e+03  1.53374808e+03  3.00e-06 1.79e-13  1.85e-16    49s
  40   1.53374810e+03  1.53374808e+03  4.89e-06 1.24e-13  2.61e-18    50s

Barrier performed 40 iterations in 49.57 seconds (25.32 work units)
Sub-optimal termination - objective 1.53374896e+03

Optimization finished!
Restarting optimization for throughput iteration 1...
Gurobi Optimizer version 10.0.3 build v10.0.3rc0 (linux64)

CPU model: Intel(R) Xeon(R) Gold 6146 CPU @ 3.20GHz, instruction set [SSE2|AVX|AVX2|AVX512]
Thread count: 24 physical cores, 48 logical processors, using up to 24 threads

Optimize a model with 5770 rows, 2726 columns and 15729020 nonzeros
Model fingerprint: 0xc3b31b9b
Coefficient statistics:
  Matrix range     [6e-13, 6e-04]
  Objective range  [4e-03, 1e+00]
  Bounds range     [1e+00, 1e+00]
  RHS range        [7e-06, 7e-06]
Presolve removed 0 rows and 0 columns (presolve time = 6s) ...
Presolve time: 7.09s
Presolved: 2726 rows, 8496 columns, 15731746 nonzeros
Ordering time: 0.07s

Barrier statistics:
 AA' NZ     : 3.714e+06
 Factor NZ  : 3.717e+06 (roughly 34 MB of memory)
 Factor Ops : 6.756e+09 (less than 1 second per iteration)
 Threads    : 24

                  Objective                Residual
Iter       Primal          Dual         Primal    Dual     Compl     Time
   0   5.49222945e+03  0.00000000e+00  0.00e+00 0.00e+00  9.53e-01    10s
   1   2.84923914e+03  5.61869370e+02  0.00e+00 1.91e-01  3.74e-01    11s
   2   2.05520649e+03  1.28124246e+03  0.00e+00 6.05e-02  1.18e-01    12s
   3   1.75644403e+03  1.45952482e+03  0.00e+00 2.19e-02  4.14e-02    13s
   4   1.66411957e+03  1.49243176e+03  0.00e+00 1.18e-02  2.19e-02    14s
   5   1.64130757e+03  1.49801105e+03  0.00e+00 9.76e-03  1.78e-02    15s
   6   1.60539576e+03  1.50324198e+03  0.00e+00 7.88e-03  1.25e-02    16s
   7   1.57114744e+03  1.51289297e+03  0.00e+00 4.60e-03  6.74e-03    16s
   8   1.55636430e+03  1.51528939e+03  0.00e+00 3.84e-03  4.87e-03    17s
   9   1.55228814e+03  1.51598698e+03  0.00e+00 3.54e-03  4.41e-03    18s
  10   1.54992629e+03  1.51625677e+03  0.00e+00 3.39e-03  4.18e-03    18s
  11   1.54606465e+03  1.51676373e+03  0.00e+00 3.06e-03  3.79e-03    19s
  12   1.54088203e+03  1.51691645e+03  0.00e+00 2.87e-03  3.42e-03    20s
  13   1.53869449e+03  1.51689671e+03  0.00e+00 2.72e-03  3.24e-03    21s
  14   1.53779145e+03  1.51682368e+03  0.00e+00 2.63e-03  3.15e-03    22s
  15   1.53643366e+03  1.51672415e+03  0.00e+00 2.53e-03  3.03e-03    22s
  16   1.53235449e+03  1.51648982e+03  0.00e+00 2.29e-03  2.67e-03    23s
  17   1.53043980e+03  1.51632264e+03  0.00e+00 2.19e-03  2.52e-03    24s
  18   1.52807868e+03  1.51610629e+03  0.00e+00 2.08e-03  2.34e-03    25s
  19   1.52733168e+03  1.51587570e+03  0.00e+00 1.97e-03  2.22e-03    26s
  20   1.52670097e+03  1.51558912e+03  0.00e+00 1.86e-03  2.13e-03    27s
  21   1.52453222e+03  1.51508472e+03  0.00e+00 1.67e-03  1.93e-03    27s
  22   1.52247902e+03  1.51495264e+03  0.00e+00 1.63e-03  1.78e-03    28s
  23   1.52076318e+03  1.51446039e+03  0.00e+00 1.53e-03  1.65e-03    29s
  24   1.51971403e+03  1.51384471e+03  0.00e+00 1.34e-03  1.47e-03    30s
  25   1.51789656e+03  1.51345618e+03  0.00e+00 1.25e-03  1.31e-03    31s
  26   1.51616814e+03  1.51270838e+03  0.00e+00 1.05e-03  1.11e-03    31s
  27   1.51540035e+03  1.51237261e+03  0.00e+00 9.71e-04  1.02e-03    32s
  28   1.51420719e+03  1.51175109e+03  0.00e+00 8.49e-04  9.04e-04    33s
  29   1.51327567e+03  1.51101807e+03  0.00e+00 6.99e-04  7.77e-04    34s
  30   1.51249119e+03  1.51067526e+03  0.00e+00 6.29e-04  6.88e-04    35s
  31   1.51213548e+03  1.51065104e+03  0.00e+00 6.24e-04  6.59e-04    35s
  32   1.51097084e+03  1.51049326e+03  0.00e+00 5.95e-04  5.62e-04    36s
  33   1.51078231e+03  1.51026330e+03  0.00e+00 5.51e-04  5.28e-04    36s
  34   1.50993177e+03  1.51017807e+03  0.00e+00 5.34e-04  4.51e-04    37s
  35   1.50911180e+03  1.50973829e+03  5.43e-05 4.51e-04  3.46e-04    37s
  36   1.50887026e+03  1.50945277e+03  5.14e-05 4.03e-04  3.11e-04    38s
  37   1.50846510e+03  1.50926531e+03  6.76e-05 3.71e-04  2.69e-04    39s
  38   1.50806313e+03  1.50883588e+03  6.76e-05 2.96e-04  2.07e-04    39s
  39   1.50784957e+03  1.50863017e+03  3.71e-05 2.54e-04  1.69e-04    40s
  40   1.50762064e+03  1.50840426e+03  2.76e-05 2.15e-04  1.33e-04    40s
  41   1.50753014e+03  1.50814244e+03  2.88e-05 1.74e-04  1.10e-04    41s
  42   1.50741264e+03  1.50811182e+03  4.07e-05 1.69e-04  9.88e-05    42s
  43   1.50729004e+03  1.50788252e+03  5.21e-05 1.34e-04  7.58e-05    43s
  44   1.50718156e+03  1.50760529e+03  9.79e-05 8.90e-05  4.83e-05    44s
  45   1.50716093e+03  1.50748760e+03  1.30e-04 7.16e-05  4.02e-05    45s
  46   1.50715377e+03  1.50746210e+03  1.48e-04 6.77e-05  3.82e-05    46s
  47   1.50714471e+03  1.50737592e+03  2.28e-04 5.50e-05  3.29e-05    46s
  48   1.50710859e+03  1.50731340e+03  2.73e-04 4.61e-05  2.69e-05    47s
  49   1.50710878e+03  1.50731023e+03  2.59e-04 4.57e-05  2.67e-05    48s
  50   1.50710580e+03  1.50730483e+03  2.56e-04 4.49e-05  2.62e-05    48s
  51   1.50709216e+03  1.50728626e+03  1.94e-04 4.23e-05  2.31e-05    49s
  52   1.50708637e+03  1.50726578e+03  2.50e-04 3.93e-05  2.16e-05    50s
  53   1.50708595e+03  1.50726424e+03  3.51e-04 3.91e-05  2.14e-05    50s
  54   1.50708051e+03  1.50724672e+03  3.60e-04 3.65e-05  2.01e-05    51s
  55   1.50707443e+03  1.50723807e+03  2.77e-04 3.53e-05  1.90e-05    52s
  56   1.50706625e+03  1.50722351e+03  2.87e-04 3.32e-05  1.77e-05    53s
  57   1.50705904e+03  1.50720949e+03  2.15e-04 3.12e-05  1.64e-05    53s
  58   1.50705699e+03  1.50719681e+03  1.96e-04 2.94e-05  1.56e-05    54s
  59   1.50705594e+03  1.50719643e+03  3.43e-04 2.94e-05  1.56e-05    54s
  60   1.50705433e+03  1.50718940e+03  3.52e-04 2.84e-05  1.51e-05    55s
  61   1.50704967e+03  1.50716530e+03  2.78e-04 2.48e-05  1.34e-05    56s
  62   1.50704854e+03  1.50716520e+03  3.25e-04 2.48e-05  1.34e-05    56s
  63   1.50704904e+03  1.50716494e+03  3.44e-04 2.47e-05  1.34e-05    57s
  64   1.50704119e+03  1.50715729e+03  3.65e-04 2.37e-05  1.25e-05    58s
  65   1.50703814e+03  1.50714743e+03  2.75e-04 2.22e-05  1.18e-05    60s
  66   1.50703456e+03  1.50713798e+03  2.95e-04 2.09e-05  1.09e-05    60s
  67   1.50703445e+03  1.50713585e+03  3.47e-04 2.06e-05  1.08e-05    61s
  68   1.50703248e+03  1.50712940e+03  3.88e-04 1.97e-05  1.03e-05    62s
  69   1.50703303e+03  1.50712934e+03  3.66e-04 1.97e-05  1.03e-05    63s
  70   1.50703296e+03  1.50712890e+03  4.57e-04 1.96e-05  1.02e-05    64s
  71   1.50703007e+03  1.50712594e+03  4.64e-04 1.92e-05  9.70e-06    65s
  72   1.50703042e+03  1.50712591e+03  4.52e-04 1.92e-05  9.69e-06    65s
  73   1.50702824e+03  1.50712504e+03  3.94e-04 1.91e-05  9.49e-06    66s
  74   1.50702771e+03  1.50712033e+03  3.70e-04 1.84e-05  9.19e-06    66s
  75   1.50702754e+03  1.50711878e+03  3.68e-04 1.82e-05  9.10e-06    67s
  76   1.50702731e+03  1.50711876e+03  3.76e-04 1.82e-05  9.10e-06    68s
  77   1.50702420e+03  1.50711488e+03  3.49e-04 1.76e-05  8.67e-06    68s
  78   1.50702059e+03  1.50710430e+03  3.12e-04 1.62e-05  7.89e-06    69s
  79   1.50702065e+03  1.50710420e+03  3.08e-04 1.62e-05  7.90e-06    69s
  80   1.50702001e+03  1.50710231e+03  3.16e-04 1.59e-05  7.75e-06    70s
  81   1.50701745e+03  1.50710076e+03  4.41e-04 1.57e-05  7.52e-06    71s
  82   1.50701797e+03  1.50710061e+03  4.41e-04 1.57e-05  7.51e-06    71s
  83   1.50701708e+03  1.50709160e+03  4.29e-04 1.44e-05  7.04e-06    72s
  84   1.50701653e+03  1.50709131e+03  4.25e-04 1.44e-05  7.02e-06    72s
  85   1.50701622e+03  1.50709130e+03  2.90e-04 1.44e-05  7.02e-06    73s
  86   1.50701352e+03  1.50708901e+03  3.53e-04 1.40e-05  6.73e-06    74s
  87   1.50701307e+03  1.50708415e+03  3.50e-04 1.34e-05  6.46e-06    75s
  88   1.50700481e+03  1.50707191e+03  6.60e-04 1.15e-05  5.24e-06    76s
  89   1.50700444e+03  1.50707188e+03  6.86e-04 1.15e-05  5.23e-06    77s
  90   1.50700375e+03  1.50706815e+03  6.95e-04 1.10e-05  5.04e-06    78s
  91   1.50700310e+03  1.50706712e+03  6.80e-04 1.09e-05  4.95e-06    78s
  92   1.50700270e+03  1.50706577e+03  7.01e-04 1.07e-05  4.88e-06    79s
  93   1.50700272e+03  1.50706532e+03  6.42e-04 1.06e-05  4.85e-06    80s
  94   1.50700247e+03  1.50706369e+03  6.75e-04 1.04e-05  4.76e-06    81s
  95   1.50700236e+03  1.50706156e+03  6.75e-04 1.01e-05  4.66e-06    81s
  96   1.50700204e+03  1.50705809e+03  6.91e-04 9.60e-06  4.44e-06    82s
  97   1.50700040e+03  1.50705629e+03  7.32e-04 9.36e-06  4.29e-06    83s
  98   1.50699898e+03  1.50705503e+03  6.94e-04 9.18e-06  4.12e-06    83s
  99   1.50699869e+03  1.50704774e+03  6.61e-04 8.17e-06  3.68e-06    84s
 100   1.50699895e+03  1.50704480e+03  6.94e-04 7.77e-06  3.49e-06    84s
 101   1.50699928e+03  1.50704253e+03  5.18e-04 7.46e-06  3.33e-06    85s
 102   1.50699959e+03  1.50704242e+03  5.12e-04 7.44e-06  3.32e-06    86s
 103   1.50699962e+03  1.50704230e+03  5.12e-04 7.43e-06  3.31e-06    86s
 104   1.50699964e+03  1.50704230e+03  5.11e-04 7.43e-06  3.31e-06    87s
 105   1.50699967e+03  1.50704228e+03  5.15e-04 7.42e-06  3.31e-06    87s
 106   1.50699920e+03  1.50704228e+03  5.18e-04 7.42e-06  3.31e-06    88s
 107   1.50699568e+03  1.50703804e+03  5.49e-04 6.85e-06  3.07e-06    89s
 108   1.50699445e+03  1.50703788e+03  5.19e-04 6.83e-06  3.04e-06    90s
 109   1.50699440e+03  1.50703759e+03  5.12e-04 6.79e-06  3.01e-06    91s
 110   1.50699386e+03  1.50703754e+03  4.86e-04 6.79e-06  3.01e-06    92s
 111   1.50699388e+03  1.50703752e+03  4.86e-04 6.78e-06  3.01e-06    93s

Barrier performed 111 iterations in 92.61 seconds (68.95 work units)
Sub-optimal termination - objective 1.50705699e+03

/user/bnickson/GitHub/LUVex_TelAps/aplc_optimization/surveys/usort_offaxis_survey_N0128_telserv3/FPM37_IWA36/drivers/06_USORT_N128_FPM370M0150_IWA0360_OWA01400_C10_BW10_Nlam5_LS_ID_ID00_ODOD09_ls_0_ovsamp16_N.py:102: DeprecationWarning: circular_aperture is deprecated. Its new name is make_circular_aperture.
  dark_zone_mask = circular_aperture(img_owa * 2)(focal_grid) - circular_aperture(img_iwa * 2)(focal_grid)
/user/bnickson/GitHub/LUVex_TelAps/aplc_optimization/surveys/usort_offaxis_survey_N0128_telserv3/FPM37_IWA36/drivers/06_USORT_N128_FPM370M0150_IWA0360_OWA01400_C10_BW10_Nlam5_LS_ID_ID00_ODOD09_ls_0_ovsamp16_N.py:110: DeprecationWarning: circular_aperture is deprecated. Its new name is make_circular_aperture.
  focal_plane_mask = 1 - evaluate_supersampled(circular_aperture(2 * fpm_radius), focal_mask_grid, 8)
WARNING: VerifyWarning: Keyword name 'LS_ALIGN_TOl' is greater than 8 characters or contains characters not allowed by the FITS standard; a HIERARCH card will be created. [astropy.io.fits.card]
WARNING: VerifyWarning: Keyword name 'LS_NUM_STOPS' is greater than 8 characters or contains characters not allowed by the FITS standard; a HIERARCH card will be created. [astropy.io.fits.card]
WARNING: VerifyWarning: Keyword name 'PROG_START' is greater than 8 characters or contains characters not allowed by the FITS standard; a HIERARCH card will be created. [astropy.io.fits.card]
WARNING: VerifyWarning: Keyword name 'PROG_EDGE' is greater than 8 characters or contains characters not allowed by the FITS standard; a HIERARCH card will be created. [astropy.io.fits.card]
WARNING: VerifyWarning: Keyword name 'THRPT_ITER' is greater than 8 characters or contains characters not allowed by the FITS standard; a HIERARCH card will be created. [astropy.io.fits.card]
WARNING: VerifyWarning: Keyword name 'THRPT_ESTIM' is greater than 8 characters or contains characters not allowed by the FITS standard; a HIERARCH card will be created. [astropy.io.fits.card]
WARNING: VerifyWarning: Keyword name 'MAX_THRPT' is greater than 8 characters or contains characters not allowed by the FITS standard; a HIERARCH card will be created. [astropy.io.fits.card]
WARNING: VerifyWarning: Keyword name 'SLV_THRDS' is greater than 8 characters or contains characters not allowed by the FITS standard; a HIERARCH card will be created. [astropy.io.fits.card]
WARNING: VerifyWarning: Keyword name 'SLV_XOVER' is greater than 8 characters or contains characters not allowed by the FITS standard; a HIERARCH card will be created. [astropy.io.fits.card]
Optimization finished!
